
  15    0


   0  11 2 3 4 5 6 9 10 11 12 13 14 
  10   2 8 7 
   8   2 8 7 
   3   1 7 
   5   1 7 
   3   1 7 
   4   1 15
   8   1 15
   9   1 15
  10   1 15
   7   1 15
   6   1 15
   1   1 15
  10   1 15
   0   0 
